p wcnf 156 234 235 
1 -156 41 0 
1 -73 -129 0 
1 -114 56 0 
1 20 152 0 
1 40 -145 0 
1 -19 119 0 
1 -156 21 0 
1 -26 -50 0 
1 -75 -139 0 
1 -12 35 0 
1 12 -71 0 
1 50 89 0 
1 -24 -9 0 
1 -3 -108 0 
1 50 -81 0 
1 30 1 0 
1 -34 62 0 
1 -132 122 0 
1 121 -39 0 
1 96 -5 0 
1 88 -59 0 
1 -61 95 0 
1 -38 -146 0 
1 89 -22 0 
1 127 -126 0 
1 120 36 0 
1 76 -100 0 
1 23 -93 0 
1 152 43 0 
1 -120 122 0 
1 -10 7 0 
1 -65 -132 0 
1 -60 47 0 
1 -46 -113 0 
1 78 -28 0 
1 1 2 0 
1 -143 -136 0 
1 136 112 0 
1 132 -43 0 
1 -155 34 0 
1 7 147 0 
1 -18 111 0 
1 -10 105 0 
1 -76 33 0 
1 122 -127 0 
1 -139 124 0 
1 30 36 0 
1 152 121 0 
1 9 38 0 
1 139 -53 0 
1 37 8 0 
1 -47 119 0 
1 -85 -54 0 
1 -57 138 0 
1 11 -136 0 
1 51 38 0 
1 -118 -44 0 
1 92 -130 0 
1 -18 84 0 
1 73 65 0 
1 114 112 0 
1 -120 -40 0 
1 -91 97 0 
1 60 129 0 
1 -15 -153 0 
1 -67 26 0 
1 119 115 0 
1 104 33 0 
1 152 9 0 
1 -51 109 0 
1 -44 -34 0 
1 48 -152 0 
1 147 65 0 
1 -77 85 0 
1 -39 -54 0 
1 -21 -52 0 
1 -20 -139 0 
1 12 -23 0 
1 40 143 0 
1 -12 -108 0 
1 17 86 0 
1 44 105 0 
1 -107 -96 0 
1 -68 34 0 
1 17 -81 0 
1 -143 -45 0 
1 8 38 0 
1 -3 -22 0 
1 -6 118 0 
1 -98 99 0 
1 115 -94 0 
1 -83 142 0 
1 53 2 0 
1 -14 -71 0 
1 -144 -122 0 
1 -26 -57 0 
1 -23 25 0 
1 -29 -150 0 
1 -70 11 0 
1 117 141 0 
1 140 -29 0 
1 15 -25 0 
1 96 68 0 
1 -3 58 0 
1 76 142 0 
1 -96 13 0 
1 59 14 0 
1 38 102 0 
1 48 82 0 
1 -45 84 0 
1 -28 -128 0 
1 -46 54 0 
1 -48 43 0 
1 -34 19 0 
1 9 53 0 
1 6 -93 0 
1 45 154 0 
1 -80 -19 0 
1 -46 27 0 
1 121 -130 0 
1 151 -10 0 
1 -107 -112 0 
1 89 -35 0 
1 -80 43 0 
1 122 -8 0 
1 151 -128 0 
1 4 -101 0 
1 117 17 0 
1 79 -133 0 
1 -152 -150 0 
1 145 114 0 
1 93 5 0 
1 -88 28 0 
1 25 112 0 
1 38 137 0 
1 -24 -136 0 
1 -36 -43 0 
1 139 108 0 
1 120 -24 0 
1 -43 -31 0 
1 86 -103 0 
1 -134 120 0 
1 114 52 0 
1 106 98 0 
1 -98 19 0 
1 -115 75 0 
1 -39 -137 0 
1 -85 52 0 
1 28 113 0 
1 32 -97 0 
1 155 -134 0 
1 92 45 0 
1 28 111 0 
1 60 92 0 
1 -36 -115 0 
1 79 108 0 
1 108 72 0 
1 18 113 0 
1 95 53 0 
1 -110 103 0 
1 -118 64 0 
1 34 -4 0 
1 64 127 0 
1 -109 129 0 
1 38 -31 0 
1 -156 -109 0 
1 -31 -85 0 
1 -7 110 0 
1 63 -47 0 
1 104 -25 0 
1 -14 89 0 
1 -88 23 0 
1 -146 54 0 
1 -113 40 0 
1 -115 58 0 
1 64 -111 0 
1 -18 42 0 
1 -25 105 0 
1 4 -20 0 
1 76 98 0 
1 -15 152 0 
1 44 140 0 
1 149 24 0 
1 -110 7 0 
1 -80 -22 0 
1 76 -15 0 
1 -100 -47 0 
1 -54 57 0 
1 -33 59 0 
1 -95 -69 0 
1 -89 -119 0 
1 -99 146 0 
1 77 -47 0 
1 124 59 0 
1 120 35 0 
1 41 -141 0 
1 -97 82 0 
1 -84 85 0 
1 -12 9 0 
1 -21 -140 0 
1 -26 -124 0 
1 -114 5 0 
1 55 37 0 
1 -52 -84 0 
1 45 -70 0 
1 -154 105 0 
1 -50 102 0 
1 52 95 0 
1 -121 1 0 
1 -60 64 0 
1 59 75 0 
1 -125 128 0 
1 70 -73 0 
1 98 47 0 
1 -132 150 0 
1 104 -120 0 
1 -72 -86 0 
1 -94 137 0 
1 43 111 0 
1 -10 -59 0 
1 11 1 0 
1 -28 -9 0 
1 -27 -18 0 
1 -13 19 0 
1 120 124 0 
1 -116 -36 0 
1 42 13 0 
1 155 -148 0 
1 50 93 0 
1 92 -43 0 
1 75 -47 0 
1 -99 82 0 
1 -59 -132 0 
1 154 -97 0 
